6502
1 1 0 0 1 1 1 0 0 1 0 1 1 0 0 1 0 1 1 0 
0 0 0 0 1 0 1 1 1 1 1 0 0 5 1 4 4 4 5 5 5 5 5 5 6 6 6 6 6 6 6 12 9 9 9 9 9 9 9 9 9 9 11 11 11 11 11 11 12 17 12 12 12 12 12 15 15 12 15 11 0 15 15 15 15 17 17 17 17 17 17 17 17 18 18 18 18 18 18 18 
